p cnf 7230 15
-2074 -3772 4490 0
-2072 -3770 4488 0
2074 -4491 0
2072 -4489 0
-4493 4495 0
4494 -4495 0
4492 -4494 0
-3774 4493 0
3774 -4492 0
-4490 4491 0
-4488 4489 0
3772 -4491 0
3770 -4489 0
-4486 4487 0
4486 -4487 0
